200
1
6
12
14
18
23
26
31
32
37
40
41
46
50
59
65
67
68
69
70
77
84
90
93
95
109
112
114
115
116
117
119
121
122
135
138
141
144
148
150
167
169
170
171
173
175
182
184
189
191
195
197
198
206
216
218
223
224
225
235
238
239
240
242
247
248
251
254
256
257
258
260
262
263
264
265
268
270
273
283
288
289
293
294
297
299
286
284
269
261
250
249
244
241
234
219
215
205
202
201
196
183
177
176
164
162
161
158
155
151
149
140
139
136
133
126
118
113
107
106
102
99
89
88
85
83
72
64
62
58
56
52
42
35
28
27
22
17
15
10
2
292
279
277
268
266
255
249
219
217
198
194
186
180
175
174
166
163
162
159
158
154
148
129
123
117
114
113
109
108
107
104
100
99
98
96
95
92
88
87
85
80
77
69
63
53
51
44
36
29
26
22
21
16
14
13
12
7
6
4
END